language ESSENCE' 1.0

letting n_courses be 138
letting n_periods be 27
letting prerequisite_RelationAsSet_Explicit_1 be
        [1, 1, 1, 1, 1, 2, 2, 2, 2, 3, 3, 3, 3, 4, 4, 4, 5, 5, 5, 5, 5, 5, 5, 5, 5, 6, 6, 7, 7, 7, 8, 8, 8, 8, 9, 10,
         10, 10, 10, 10, 11, 11, 12, 12, 12, 12, 13, 13, 13, 13, 13, 13, 14, 14, 15, 15, 16, 16, 16, 17, 17, 17, 18, 18,
         19, 19, 19, 19, 19, 19, 20, 20, 20, 20, 20, 20, 20, 21, 21, 21, 21, 21, 21, 22, 22, 22, 23, 23, 23, 23, 23, 24,
         24, 24, 26, 26, 26, 26, 26, 27, 27, 27, 27, 28, 28, 28, 29, 29, 30, 30, 30, 30, 30, 30, 30, 30, 31, 31, 31, 32,
         32, 32, 32, 32, 32, 32, 33, 33, 33, 34, 34, 34, 34, 34, 34, 35, 35, 35, 35, 35, 36, 36, 36, 36, 36, 36, 37, 37,
         37, 37, 37, 38, 38, 38, 38, 38, 38, 38, 38, 38, 39, 39, 39, 39, 39, 40, 40, 40, 40, 40, 42, 42, 42, 42, 42, 43,
         43, 43, 43, 43, 43, 44, 44, 45, 45, 46, 47, 48, 48, 49, 49, 50, 50, 50, 51, 51, 51, 52, 52, 54, 54, 55, 55, 55,
         56, 56, 56, 56, 57, 57, 57, 57, 57, 57, 58, 59, 59, 59, 59, 60, 60, 60, 60, 61, 61, 61, 62, 62, 63, 63, 63, 63,
         63, 64, 64, 64, 64, 65, 65, 65, 65, 66, 66, 67, 67, 67, 67, 68, 68, 68, 69, 69, 69, 70, 71, 71, 72, 73, 73, 74,
         74, 74, 75, 75, 76, 76, 76, 76, 77, 77, 78, 79, 79, 79, 79, 80, 80, 80, 80, 80, 81, 81, 81, 82, 82, 82, 82, 82,
         82, 82, 82, 82, 82, 84, 84, 86, 86, 86, 86, 86, 87, 87, 87, 87, 88, 88, 88, 88, 89, 89, 89, 89, 89, 90, 90, 90,
         90, 91, 91, 92, 93, 93, 93, 93, 94, 95, 95, 95, 96, 96, 97, 97, 98, 98, 99, 99, 99, 99, 100, 100, 100;
             int(1..341)]
letting prerequisite_RelationAsSet_Explicit_2 be
        [46, 50, 62, 82, 93, 59, 61, 76, 86, 45, 73, 96, 98, 47, 50, 82, 56, 63, 64, 69, 75, 81, 84, 90, 100, 59, 73,
         68, 77, 80, 45, 47, 63, 99, 50, 59, 64, 69, 73, 84, 92, 98, 72, 91, 92, 98, 70, 87, 89, 93, 96, 99, 95, 98, 59,
         88, 47, 72, 94, 48, 56, 69, 56, 87, 45, 53, 56, 59, 65, 92, 51, 52, 54, 65, 71, 82, 98, 49, 64, 71, 74, 91,
         100, 54, 86, 97, 50, 64, 77, 84, 94, 57, 83, 92, 59, 60, 62, 90, 95, 79, 85, 95, 96, 74, 93, 96, 64, 78, 45,
         46, 51, 62, 74, 88, 99, 100, 48, 55, 76, 63, 65, 67, 74, 76, 79, 81, 73, 83, 99, 60, 61, 88, 89, 94, 97, 47,
         66, 73, 92, 97, 46, 65, 81, 84, 85, 91, 55, 58, 67, 69, 75, 49, 55, 59, 68, 79, 82, 85, 92, 96, 53, 58, 79, 95,
         97, 52, 64, 66, 68, 74, 50, 51, 80, 83, 86, 57, 60, 64, 70, 90, 93, 83, 100, 113, 137, 132, 112, 113, 129, 118,
         123, 103, 115, 126, 105, 106, 115, 118, 121, 116, 137, 105, 114, 133, 108, 124, 130, 135, 104, 112, 115, 119,
         130, 137, 126, 103, 107, 111, 118, 108, 116, 127, 136, 109, 115, 129, 101, 121, 108, 127, 128, 131, 133, 106,
         125, 126, 130, 105, 120, 124, 129, 132, 133, 111, 117, 120, 137, 114, 119, 137, 114, 127, 133, 132, 112, 137,
         120, 132, 135, 112, 119, 126, 107, 108, 105, 127, 134, 135, 107, 116, 119, 104, 109, 118, 119, 111, 124, 126,
         130, 134, 107, 125, 128, 103, 107, 112, 113, 117, 123, 124, 133, 135, 136, 117, 132, 102, 110, 112, 125, 132,
         106, 115, 125, 136, 103, 105, 106, 123, 101, 119, 124, 126, 132, 113, 118, 120, 131, 104, 131, 131, 118, 122,
         131, 138, 112, 102, 121, 122, 112, 125, 124, 129, 118, 132, 111, 124, 127, 137, 124, 132, 133;
             int(1..341)]
letting course_load_Function1D be
        [4, 2, 4, 3, 4, 6, 5, 3, 4, 3, 6, 6, 4, 4, 3, 2, 5, 3, 5, 3, 3, 2, 2, 4, 4, 4, 2, 2, 4, 2, 2, 2, 3, 5, 2, 3, 4,
         6, 2, 2, 2, 4, 2, 4, 3, 2, 3, 2, 4, 4, 3, 4, 6, 5, 6, 5, 6, 5, 5, 5, 2, 3, 6, 5, 3, 5, 6, 4, 4, 3, 6, 3, 3, 3,
         2, 4, 5, 3, 2, 2, 2, 6, 5, 2, 2, 2, 2, 4, 4, 4, 5, 2, 5, 5, 6, 6, 4, 3, 2, 2, 4, 2, 2, 4, 4, 2, 3, 3, 2, 4, 4,
         3, 5, 2, 5, 4, 6, 2, 4, 6, 2, 2, 5, 3, 4, 3, 3, 4, 4, 2, 5, 2, 3, 3, 4, 5, 4, 6;
             int(1..138)]
letting load_per_period_ub be 45
letting load_per_period_lb be 8
letting courses_per_period_ub be 9
letting courses_per_period_lb be 5
letting fin1 be 341
letting fin2 be 138
letting fin3 be 6
